num_wann  = 12
num_bands = 96
spinors   = true

begin projections
Pd:dx2-y2 
Se:pz
end projections

bands_plot = true
write_hr   = true
write_xyz  = true

dis_num_iter = 10
num_iter     = 10

dis_win_min  = -3.5
dis_win_max  =  3.0
dis_froz_min = -2.8                                                       
dis_froz_max =  1.0

guiding_centres = true
!site_symmetry   = true



fermi_energy = -1.3162


bands_num_points = 200

mp_grid = 4 4 1

begin kpoint_path
G  0.000000  0.000000  0.000000   X  0.500000  0.000000  0.000000
X  0.500000  0.000000  0.000000   S  0.500000  0.500000  0.000000
S  0.500000  0.500000  0.000000   Y  0.000000  0.500000  0.000000
Y  0.000000  0.500000  0.000000   G  0.000000  0.000000  0.000000
G  0.000000  0.000000  0.000000   S  0.500000  0.500000  0.000000
end kpoint_path

begin kpoints
  0.00000000  0.00000000  0.00000000
  0.00000000  0.25000000  0.00000000
  0.00000000  0.50000000  0.00000000
  0.00000000  0.75000000  0.00000000
  0.25000000  0.00000000  0.00000000
  0.25000000  0.25000000  0.00000000
  0.25000000  0.50000000  0.00000000
  0.25000000  0.75000000  0.00000000
  0.50000000  0.00000000  0.00000000
  0.50000000  0.25000000  0.00000000
  0.50000000  0.50000000  0.00000000
  0.50000000  0.75000000  0.00000000
  0.75000000  0.00000000  0.00000000
  0.75000000  0.25000000  0.00000000
  0.75000000  0.50000000  0.00000000
  0.75000000  0.75000000  0.00000000
end kpoints

begin unit_cell_cart
ang
5.75046066952370 0.00000000000000 0.00000000000000
0.00000000000000 5.91993495884138 0.00000000000000
0.00000000000000 0.00000000000000 16.45073988400000
end unit_cell_cart

begin atoms_cart
ang
Pd  2.8752303408  5.9199349579  8.2253699393
Pd  5.7504606650  2.9599674717  8.2253699353
Se  0.6341168942  0.7084520231  7.4779217190
Se  3.5093472325  2.2515154512  8.9728181620
Se  5.1163437707  5.2114829246  8.9728181579
Se  2.2411134371  3.6684194970  7.4779217203
end atoms_cart